results/x-long/X-n157-k13.vrp_seed-36.out
16876	1741
