results/x-long/X-n157-k13.vrp_seed-36.vrp.sol
Route #1: 126 1 117 9 108 40 80 146 78 125 139 70
Route #2: 38 122 69 99 93 36 68 20 75 118 147 15
Route #3: 59 96 102 132 111 86 94 66 28 7 137 92
Route #4: 34 138 25 155 22 30 74 79 84 33 48 72
Route #5: 129 91 100 51 90 83 45 77 11 82 113 151
Route #6: 17 67 4 35 6 115 55 95 105 152 56 61
Route #7: 41 110 54 121 21 135 73 106 3 42 32 143
Route #8: 148 13 63 64 141 43 24 156 150 8 149 71
Route #9: 23 31 140 85 144 53 123 98 154 50 133 131
Route #10: 49 14 120 26 128 142 62 97 87 65 103 16
Route #11: 12 60 109 114 29 58 39 10 134 52 107 18
Route #12: 88 57 2 119 81 89 112 136 76 153 5 47
Route #13: 101 27 44 124 130 104 127 145 46 19 116 37
Cost 16876.000000